NAME          COPTPROB
OBJSENSE
  MIN
ROWS
 N  __OBJ___
 L  C48     
 L  C110    
 L  C126    
 L  C134    
 L  C138    
 L  C164    
 L  C170    
 L  C183    
COLUMNS
    MARKER    'MARKER'                 'INTORG'
    x2        __OBJ___  418
    x2        C126      -1
    x2        C134      -1
    x36       __OBJ___  863
    x36       C110      -1
    x36       C170      -1
    x97       __OBJ___  458
    x97       C138      -1
    x97       C183      -1
    x140      __OBJ___  161
    x140      C164      -1
    x149      __OBJ___  76
    x149      C110      -1
    x236      __OBJ___  159
    x236      C48       -1
    x236      C126      -1
    x352      __OBJ___  181
    x352      C110      -1
    x352      C164      -1
    x373      __OBJ___  429
    x373      C134      -1
    x373      C183      -1
    x379      __OBJ___  828
    x379      C48       -1
    x379      C170      -1
    x398      __OBJ___  170
    x398      C138      -1
    x398      C164      -1
    MARKER    'MARKER'                 'INTEND'
RHS
    RHS       __OBJ___  -30740
    RHS       C48       -1
    RHS       C110      -1
    RHS       C126      -1
    RHS       C134      -1
    RHS       C138      -1
    RHS       C164      -1
    RHS       C170      -1
    RHS       C183      -1
BOUNDS
 UP BOUND     x2        1
 UP BOUND     x36       1
 UP BOUND     x97       1
 UP BOUND     x140      1
 UP BOUND     x149      1
 UP BOUND     x236      1
 UP BOUND     x352      1
 UP BOUND     x373      1
 UP BOUND     x379      1
 UP BOUND     x398      1
ENDATA
